p cnf 49 138
16 -15 -3 0
17 -13 -9 0
-3 -14 20 -4 0
-15 -5 21 -2 0
-14 -5 -3 22 0
-6 -10 23 0
25 -4 -2 0
26 -14 -5 -2 0
-6 27 -11 0
-22 -28 0
-20 -28 0
-21 -28 0
-8 -13 29 0
-7 18 -29 0
-7 -11 30 0
-7 -10 31 0
-31 19 -12 0
32 -12 -9 0
24 -32 -11 0
-8 33 -12 0
-23 -20 -33 0
-30 28 -33 0
-16 34 -4 0
-28 -34 0
-23 -34 -33 0
-27 -34 -33 0
-16 35 -5 0
-27 -35 -33 0
-23 -35 -33 0
-28 -35 0
-15 36 -25 0
-14 37 -25 0
-30 38 -17 0
-38 -35 0
-38 -36 0
-38 -26 0
-38 -34 0
-38 -20 0
-38 -21 0
-38 -22 0
-38 -37 0
-31 -17 39 0
-39 -34 0
-39 -36 0
-39 -37 0
-39 -26 0
-39 -20 0
-39 -21 0
-39 -22 0
-39 -35 0
40 -19 -9 0
-40 -34 0
-40 -20 0
-40 -21 0
-40 -37 0
-40 -22 0
-40 -35 0
-40 -36 0
-40 -26 0
41 -10 -18 0
-37 -41 0
-20 -41 0
-21 -41 0
-35 -41 0
-22 -41 0
-26 -41 0
-36 -41 0
-34 -41 0
42 -11 -18 0
-20 -42 0
-35 -42 0
-21 -42 0
-22 -42 0
-36 -42 0
-42 -26 0
-34 -42 0
-37 -42 0
43 -27 -17 0
-35 -43 0
-36 -43 0
-37 -43 0
-21 -43 0
-43 -26 0
-22 -43 0
-20 -43 0
-43 -34 0
-23 44 -17 0
-44 -36 0
-44 -20 0
-21 -44 0
-22 -44 0
-37 -44 0
-44 -26 0
-44 -34 0
-44 -35 0
-8 -19 45 0
-45 -36 0
-45 -20 0
-37 -45 0
-21 -45 0
-22 -45 0
-45 -34 0
-45 -35 0
-24 -7 46 0
-46 -21 0
-46 -22 0
-46 -34 0
-46 -20 0
-46 -35 0
-46 -36 0
-46 -37 0
-23 -29 47 0
-47 -34 0
-47 -35 0
-47 -20 0
-47 -21 0
-47 -22 0
-47 -26 0
-47 -37 0
-32 -23 48 0
-48 -34 0
-48 -35 0
-48 -20 0
-48 -21 0
-48 -26 0
-48 -22 0
-24 49 -6 0
-35 -49 0
-21 -49 0
-36 -49 0
-20 -49 0
-34 -49 0
50 -29 -27 0
-21 -50 0
-22 -50 0
-20 -50 0
-34 -50 0
-35 -50 0
